<instance format="XCSP3" type="COP">
  <variables>
    <array id="x" size="[50]"> 0 1 </array>
  </variables>
  <constraints>
    <sum>
      <list> x[] </list>
      <coeffs> 12 27 17 29 42 4 28 5 41 42 9 19 13 12 30 25 4 1 2 9 10 29 48 50 47 9 43 28 32 33 15 15 17 24 24 50 5 40 12 35 21 47 2 43 6 45 17 39 39 6 </coeffs>
      <condition> (le,200) </condition>
    </sum>
  </constraints>
  <objectives>
    <maximize type="sum">
      <list> x[] </list>
      <coeffs> 33 90 36 14 67 76 60 74 66 21 14 15 16 57 36 27 65 10 22 38 34 9 27 14 19 42 87 53 17 22 57 5 15 48 18 88 18 49 17 81 13 73 82 79 90 28 97 81 15 77 </coeffs>
    </maximize>
  </objectives>
</instance>
